src/swarm_exploration/utils/lkh_tsp_solver/resource/expl_1.tsp
NAME : single
TYPE : ATSP
DIMENSION : 5
EDGE_WEIGHT_TYPE : EXPLICIT
EDGE_WEIGHT_FORMAT : FULL_MATRIX
EDGE_WEIGHT_SECTION
0 -100000 0 0 0 
0 0 268 32 0 
0 268 0 229 183 
0 32 229 0 168 
-100000 0 183 168 0 
EOF